p cnf 999
886 0
897 0
928 0
937 0

p cnf 999
895 0
914 0
932 0
978 0

p cnf 999
811 0
827 0
946 0
983 0

p cnf 999
814 0
875 0
938 0
967 0

p cnf 999
892 0
915 0
949 0
977 0

p cnf 999
931 0
949 0
985 0
996 0

p cnf 999
834 0
879 0
933 0
942 0

p cnf 999
898 0
921 0
955 0
993 0

p cnf 999
878 0
914 0
922 0
949 0

p cnf 999
779 0
929 0
944 0
983 0

